p cnf 877 1063
a 1 2 3 4 5 6 7 8 9 10 11 12 13 14 15 16 17 18 19 20 21 22 23 24 25 26 27 28 29 30 31 32 33 34 35 36 37 38 39 40 41 42 43 44 45 46 47 48 49 50 51 52 53 54 55 56 57 58 59 60 61 62 63 64 65 66 67 68 69 70 71 72 73 74 75 76 77 78 79 80 81 82 83 84 85 86 87 88 89 90 91 92 93 94 95 96 97 98 99 100 101 102 103 104 105 106 107 0
d 108 1 2 3 4 5 6 7 8 9 10 11 12 13 14 15 16 17 18 19 20 21 22 23 24 25 26 27 28 29 30 31 32 33 34 35 36 37 38 39 40 41 42 43 44 45 46 47 48 49 50 51 52 53 54 55 56 57 58 59 60 0
d 109 1 2 3 4 5 6 7 8 9 10 11 12 13 14 15 16 17 18 19 20 21 22 23 24 25 26 27 28 29 30 31 32 33 34 35 36 37 38 39 40 41 42 43 44 45 46 47 48 49 50 51 52 53 54 55 56 57 58 59 60 0
d 110 1 2 3 4 5 6 7 8 9 10 11 12 13 14 15 16 17 18 19 20 21 22 23 24 25 26 27 28 29 30 31 32 33 34 35 36 37 38 39 40 41 42 43 44 45 46 47 48 49 50 51 52 53 54 55 56 57 58 59 60 0
d 111 1 2 3 4 5 6 7 8 9 10 11 12 13 14 15 16 17 18 19 20 21 22 23 24 25 26 27 28 29 30 31 32 33 34 35 36 37 38 39 40 41 42 43 44 45 46 47 48 49 50 51 52 53 54 55 56 57 58 59 60 0
d 112 1 2 3 4 5 6 7 8 9 10 11 12 13 14 15 16 17 18 19 20 21 22 23 24 25 26 27 28 29 30 31 32 33 34 35 36 37 38 39 40 41 42 43 44 45 46 47 48 49 50 51 52 53 54 55 56 57 58 59 60 0
d 113 1 2 3 4 5 6 7 8 9 10 11 12 13 14 15 16 17 18 19 20 21 22 23 24 25 26 27 28 29 30 31 32 33 34 35 36 37 38 39 40 41 42 43 44 45 46 47 48 49 50 51 52 53 54 55 56 57 58 59 60 0
d 114 1 2 3 4 5 6 7 8 9 10 11 12 13 14 15 16 17 18 19 20 21 22 23 24 25 26 27 28 29 30 31 32 33 34 35 36 37 38 39 40 41 42 43 44 45 46 47 48 49 50 51 52 53 54 55 56 57 58 59 60 0
d 115 1 2 3 4 5 6 7 8 9 10 11 12 13 14 15 16 17 18 19 20 21 22 23 24 25 26 27 28 29 30 31 32 33 34 35 36 37 38 39 40 41 42 43 44 45 46 47 48 49 50 51 52 53 54 55 56 57 58 59 60 0
d 116 1 2 3 4 5 6 7 8 9 10 11 12 13 14 15 16 17 18 19 20 21 22 23 24 25 26 27 28 29 30 31 32 33 34 35 36 37 38 39 40 41 42 43 44 45 46 47 48 49 50 51 52 53 54 55 56 57 58 59 60 0
d 117 1 2 3 4 5 6 7 8 9 10 11 12 13 14 15 16 17 18 19 20 21 22 23 24 25 26 27 28 29 30 31 32 33 34 35 36 37 38 39 40 41 42 43 44 45 46 47 48 49 50 51 52 53 54 55 56 57 58 59 60 0
d 118 1 2 3 4 5 6 7 8 9 10 11 12 13 14 15 16 17 18 19 20 21 22 23 24 25 26 27 28 29 30 31 32 33 34 35 36 37 38 39 40 41 42 43 44 45 46 47 48 49 50 51 52 53 54 55 56 57 58 59 60 0
d 119 1 2 3 4 5 6 7 8 9 10 11 12 13 14 15 16 17 18 19 20 21 22 23 24 25 26 27 28 29 30 31 32 33 34 35 36 37 38 39 40 41 42 43 44 45 46 47 48 49 50 51 52 53 54 55 56 57 58 59 60 0
d 120 1 2 3 4 5 6 7 8 9 10 11 12 13 14 15 16 17 18 19 20 21 22 23 24 25 26 27 28 29 30 31 32 33 34 35 36 37 38 39 40 41 42 43 44 45 46 47 48 49 50 51 52 53 54 55 56 57 58 59 60 0
d 121 14 15 16 17 18 19 20 21 22 23 24 25 26 27 28 29 30 31 32 33 34 35 36 37 38 39 40 41 42 43 44 45 46 47 48 49 50 51 52 53 54 55 56 57 58 59 60 0
d 122 61 62 63 64 65 66 67 68 69 70 71 72 73 74 75 76 77 78 79 80 81 82 83 84 85 86 87 88 89 90 91 92 93 94 95 96 97 98 99 100 101 102 103 104 105 106 107 0
e 137 144 145 146 148 149 154 155 157 158 161 162 181 196 203 206 209 213 214 216 217 220 221 223 224 244 245 246 248 249 252 253 255 256 275 276 277 279 280 283 284 286 287 291 292 326 331 336 341 345 346 349 364 365 366 367 368 369 370 374 382 384 392 398 399 408 409 414 415 418 419 421 422 427 428 430 431 440 441 442 448 449 451 452 469 482 489 492 494 506 512 513 516 517 522 527 528 531 532 536 537 539 540 556 571 574 576 577 581 582 588 589 597 598 600 601 604 605 607 608 615 616 0
46 47 48 -49 93 94 95 -96 137 0
-46 93 -137 0
46 47 -48 -49 93 94 -95 -96 137 0
46 -93 -137 0
-46 -47 48 49 -93 -94 95 96 137 0
46 47 -48 49 93 94 -95 96 137 0
46 -47 48 49 93 -94 95 96 137 0
-46 -47 -48 49 -93 -94 -95 96 137 0
46 -47 -48 49 93 -94 -95 96 137 0
-47 94 -137 0
-46 47 48 49 -93 94 95 96 137 0
47 -94 -137 0
-46 -47 -48 -49 -93 -94 -95 -96 137 0
46 -47 -48 -49 93 -94 -95 -96 137 0
-46 47 48 -49 -93 94 95 -96 137 0
-46 47 -48 49 -93 94 -95 96 137 0
46 47 48 49 93 94 95 96 137 0
-48 95 -137 0
-46 -47 48 -49 -93 -94 95 -96 137 0
48 -95 -137 0
46 -47 48 -49 93 -94 95 -96 137 0
-46 47 -48 -49 -93 94 -95 -96 137 0
-49 96 -137 0
49 -96 -137 0
50 -51 97 -98 144 0
-50 97 -144 0
-50 -51 -97 -98 144 0
50 -97 -144 0
-50 51 -97 98 144 0
50 51 97 98 144 0
-51 98 -144 0
51 -98 -144 0
-99 -145 0
52 -145 0
-52 99 145 0
99 -146 0
-52 -146 0
52 -99 146 0
-146 -181 0
57 58 59 60 104 105 106 107 -137 -144 145 146 148 149 154 155 157 158 161 162 181 0
-100 -148 0
53 -148 0
-53 100 148 0
100 -149 0
-53 -149 0
53 -100 149 0
-149 -181 0
57 58 -59 60 104 105 -106 107 -137 -144 145 146 148 149 154 155 157 158 161 162 181 0
57 -58 59 60 104 -105 106 107 -137 -144 145 146 148 149 154 155 157 158 161 162 181 0
57 -58 -59 60 104 -105 -106 107 -137 -144 145 146 148 149 154 155 157 158 161 162 181 0
57 58 59 -60 104 105 106 -107 -137 -144 145 146 148 149 154 155 157 158 161 162 181 0
-101 -154 0
54 -154 0
-54 101 154 0
101 -155 0
-54 -155 0
54 -101 155 0
-155 -181 0
57 58 -59 -60 104 105 -106 -107 -137 -144 145 146 148 149 154 155 157 158 161 162 181 0
-102 -157 0
55 -157 0
-55 102 157 0
102 -158 0
-55 -158 0
55 -102 158 0
-158 -181 0
57 -58 59 -60 104 -105 106 -107 -137 -144 145 146 148 149 154 155 157 158 161 162 181 0
57 -58 -59 -60 104 -105 -106 -107 -137 -144 145 146 148 149 154 155 157 158 161 162 181 0
-103 -161 0
56 -161 0
-56 103 161 0
103 -162 0
-56 -162 0
56 -103 162 0
-162 -181 0
-57 58 59 60 -104 105 106 107 -137 -144 145 146 148 149 154 155 157 158 161 162 181 0
-57 -58 59 60 -104 -105 106 107 -137 -144 145 146 148 149 154 155 157 158 161 162 181 0
-57 58 59 -60 -104 105 106 -107 -137 -144 145 146 148 149 154 155 157 158 161 162 181 0
-154 -181 0
-57 -58 -59 60 -104 -105 -106 107 -137 -144 145 146 148 149 154 155 157 158 161 162 181 0
-57 58 -59 -60 -104 105 -106 -107 -137 -144 145 146 148 149 154 155 157 158 161 162 181 0
-157 -181 0
-57 -58 59 -60 -104 -105 106 -107 -137 -144 145 146 148 149 154 155 157 158 161 162 181 0
-161 -181 0
-57 -58 -59 -60 -104 -105 -106 -107 -137 -144 145 146 148 149 154 155 157 158 161 162 181 0
-148 -181 0
144 -181 0
137 -181 0
-145 -181 0
-57 58 -59 60 -104 105 -106 107 -137 -144 145 146 148 149 154 155 157 158 161 162 181 0
14 15 16 -17 61 62 63 -64 196 0
-14 61 -196 0
14 15 -16 -17 61 62 -63 -64 196 0
14 -61 -196 0
-14 -15 16 17 -61 -62 63 64 196 0
14 15 -16 17 61 62 -63 64 196 0
14 -15 16 17 61 -62 63 64 196 0
-14 -15 -16 17 -61 -62 -63 64 196 0
14 -15 -16 17 61 -62 -63 64 196 0
-15 62 -196 0
-14 15 16 17 -61 62 63 64 196 0
15 -62 -196 0
-14 -15 -16 -17 -61 -62 -63 -64 196 0
14 -15 -16 -17 61 -62 -63 -64 196 0
-14 15 16 -17 -61 62 63 -64 196 0
-14 15 -16 17 -61 62 -63 64 196 0
14 15 16 17 61 62 63 64 196 0
-16 63 -196 0
-14 -15 16 -17 -61 -62 63 -64 196 0
16 -63 -196 0
14 -15 16 -17 61 -62 63 -64 196 0
-14 15 -16 -17 -61 62 -63 -64 196 0
-17 64 -196 0
17 -64 -196 0
18 -19 65 -66 203 0
-18 65 -203 0
-18 -19 -65 -66 203 0
18 -65 -203 0
-18 19 -65 66 203 0
18 19 65 66 203 0
-19 66 -203 0
19 -66 -203 0
-20 -67 206 0
-20 67 -206 0
20 -67 -206 0
20 67 206 0
-21 -68 209 0
-21 68 -209 0
21 -68 -209 0
21 68 209 0
209 -244 0
26 27 28 29 73 74 75 76 -196 -203 -206 -209 213 214 216 217 220 221 223 224 244 0
26 27 28 -29 73 74 75 -76 -196 -203 -206 -209 213 214 216 217 220 221 223 224 244 0
26 27 -28 29 73 74 -75 76 -196 -203 -206 -209 213 214 216 217 220 221 223 224 244 0
-69 -213 0
22 -213 0
-22 69 213 0
69 -214 0
-22 -214 0
22 -69 214 0
-214 -244 0
26 27 -28 -29 73 74 -75 -76 -196 -203 -206 -209 213 214 216 217 220 221 223 224 244 0
-70 -216 0
23 -216 0
-23 70 216 0
70 -217 0
-23 -217 0
23 -70 217 0
-217 -244 0
26 -27 28 29 73 -74 75 76 -196 -203 -206 -209 213 214 216 217 220 221 223 224 244 0
26 -27 28 -29 73 -74 75 -76 -196 -203 -206 -209 213 214 216 217 220 221 223 224 244 0
-71 -220 0
24 -220 0
-24 71 220 0
71 -221 0
-24 -221 0
24 -71 221 0
-221 -244 0
26 -27 -28 29 73 -74 -75 76 -196 -203 -206 -209 213 214 216 217 220 221 223 224 244 0
-72 -223 0
25 -223 0
-25 72 223 0
72 -224 0
-25 -224 0
25 -72 224 0
-224 -244 0
26 -27 -28 -29 73 -74 -75 -76 -196 -203 -206 -209 213 214 216 217 220 221 223 224 244 0
-26 27 28 29 -73 74 75 76 -196 -203 -206 -209 213 214 216 217 220 221 223 224 244 0
-26 27 28 -29 -73 74 75 -76 -196 -203 -206 -209 213 214 216 217 220 221 223 224 244 0
-26 27 -28 -29 -73 74 -75 -76 -196 -203 -206 -209 213 214 216 217 220 221 223 224 244 0
-26 -27 28 -29 -73 -74 75 -76 -196 -203 -206 -209 213 214 216 217 220 221 223 224 244 0
-220 -244 0
-26 -27 28 29 -73 -74 75 76 -196 -203 -206 -209 213 214 216 217 220 221 223 224 244 0
-26 -27 -28 29 -73 -74 -75 76 -196 -203 -206 -209 213 214 216 217 220 221 223 224 244 0
206 -244 0
196 -244 0
203 -244 0
-213 -244 0
-216 -244 0
-26 27 -28 29 -73 74 -75 76 -196 -203 -206 -209 213 214 216 217 220 221 223 224 244 0
-223 -244 0
-26 -27 -28 -29 -73 -74 -75 -76 -196 -203 -206 -209 213 214 216 217 220 221 223 224 244 0
-77 -245 0
30 -245 0
-30 77 245 0
77 -246 0
-30 -246 0
30 -77 246 0
-246 -275 0
34 35 36 37 81 82 83 84 245 246 248 249 252 253 255 256 275 0
-78 -248 0
31 -248 0
-31 78 248 0
78 -249 0
-31 -249 0
31 -78 249 0
-249 -275 0
34 35 36 -37 81 82 83 -84 245 246 248 249 252 253 255 256 275 0
34 35 -36 37 81 82 -83 84 245 246 248 249 252 253 255 256 275 0
-79 -252 0
32 -252 0
-32 79 252 0
79 -253 0
-32 -253 0
32 -79 253 0
-253 -275 0
34 35 -36 -37 81 82 -83 -84 245 246 248 249 252 253 255 256 275 0
-80 -255 0
33 -255 0
-33 80 255 0
80 -256 0
-33 -256 0
33 -80 256 0
-256 -275 0
34 -35 36 37 81 -82 83 84 245 246 248 249 252 253 255 256 275 0
34 -35 36 -37 81 -82 83 -84 245 246 248 249 252 253 255 256 275 0
34 -35 -36 37 81 -82 -83 84 245 246 248 249 252 253 255 256 275 0
-34 35 36 37 -81 82 83 84 245 246 248 249 252 253 255 256 275 0
-34 35 -36 37 -81 82 -83 84 245 246 248 249 252 253 255 256 275 0
-252 -275 0
-34 35 36 -37 -81 82 83 -84 245 246 248 249 252 253 255 256 275 0
-34 35 -36 -37 -81 82 -83 -84 245 246 248 249 252 253 255 256 275 0
-34 -35 36 -37 -81 -82 83 -84 245 246 248 249 252 253 255 256 275 0
-34 -35 -36 -37 -81 -82 -83 -84 245 246 248 249 252 253 255 256 275 0
-34 -35 -36 37 -81 -82 -83 84 245 246 248 249 252 253 255 256 275 0
-245 -275 0
-248 -275 0
34 -35 -36 -37 81 -82 -83 -84 245 246 248 249 252 253 255 256 275 0
-255 -275 0
-34 -35 36 37 -81 -82 83 84 245 246 248 249 252 253 255 256 275 0
-85 -276 0
38 -276 0
85 -277 0
-38 -277 0
43 44 45 90 91 92 -121 122 -181 -244 -275 276 277 279 280 283 284 286 287 291 292 0
-86 -279 0
39 -279 0
86 -280 0
-39 -280 0
43 44 45 90 91 92 121 -122 -181 -244 -275 276 277 279 280 283 284 286 287 291 292 0
43 44 -45 90 91 -92 -121 122 -181 -244 -275 276 277 279 280 283 284 286 287 291 292 0
-87 -283 0
40 -283 0
87 -284 0
-40 -284 0
43 44 -45 90 91 -92 121 -122 -181 -244 -275 276 277 279 280 283 284 286 287 291 292 0
-88 -286 0
41 -286 0
88 -287 0
-41 -287 0
43 -44 45 90 -91 92 -121 122 -181 -244 -275 276 277 279 280 283 284 286 287 291 292 0
43 -44 45 90 -91 92 121 -122 -181 -244 -275 276 277 279 280 283 284 286 287 291 292 0
43 -44 -45 90 -91 -92 -121 122 -181 -244 -275 276 277 279 280 283 284 286 287 291 292 0
-89 -291 0
42 -291 0
89 -292 0
-42 -292 0
43 -44 -45 90 -91 -92 121 -122 -181 -244 -275 276 277 279 280 283 284 286 287 291 292 0
-43 44 45 -90 91 92 121 -122 -181 -244 -275 276 277 279 280 283 284 286 287 291 292 0
-43 44 45 -90 91 92 -121 122 -181 -244 -275 276 277 279 280 283 284 286 287 291 292 0
-43 44 -45 -90 91 -92 121 -122 -181 -244 -275 276 277 279 280 283 284 286 287 291 292 0
-43 44 -45 -90 91 -92 -121 122 -181 -244 -275 276 277 279 280 283 284 286 287 291 292 0
-43 -44 45 -90 -91 92 -121 122 -181 -244 -275 276 277 279 280 283 284 286 287 291 292 0
-43 -44 45 -90 -91 92 121 -122 -181 -244 -275 276 277 279 280 283 284 286 287 291 292 0
-43 -44 -45 -90 -91 -92 121 -122 -181 -244 -275 276 277 279 280 283 284 286 287 291 292 0
-43 -44 -45 -90 -91 -92 -121 122 -181 -244 -275 276 277 279 280 283 284 286 287 291 292 0
90 91 -92 108 -121 122 -336 -469 -556 -571 -574 576 577 581 582 588 589 597 598 600 601 604 605 607 608 616 0
14 -382 0
-14 36 -46 382 0
46 -93 120 -326 0
-2 -14 -46 93 -94 115 326 0
2 -14 -46 -93 94 -115 326 0
-8 14 -93 -326 0
-8 -93 115 -326 0
-2 14 93 -94 120 326 0
-2 -7 14 93 -94 326 0
-7 -93 115 -326 0
-7 14 -93 -326 0
2 93 94 115 120 326 0
-2 -8 93 -94 115 326 0
14 -93 120 -326 0
-93 115 120 -326 0
-14 -46 -93 115 -326 0
2 -7 14 93 94 326 0
2 -8 93 94 115 326 0
-2 93 -94 115 120 326 0
2 -14 -46 93 94 115 326 0
-2 7 8 46 -93 -94 -120 326 0
-2 -14 -46 -93 -94 -115 326 0
2 -7 93 94 115 326 0
46 -382 0
-2 7 8 14 -93 -94 -120 326 0
2 -8 14 93 94 326 0
2 7 8 46 -93 94 -120 326 0
-2 -7 93 -94 115 326 0
-2 94 -326 0
-7 46 -93 -326 0
-2 46 93 -94 120 326 0
2 -94 -326 0
-2 -7 46 93 -94 326 0
2 46 93 94 120 326 0
2 -7 46 93 94 326 0
2 -8 46 93 94 326 0
7 8 46 93 -120 -326 0
-8 46 -93 -326 0
-2 -8 14 93 -94 326 0
-13 14 117 331 0
-14 -28 -331 0
28 -117 118 119 366 0
14 -118 -121 -440 0
58 117 118 119 370 0
-14 -20 -54 -119 -121 -440 0
6 21 -68 -111 -506 0
-13 115 -117 118 119 -121 -440 0
-9 -119 -370 0
14 -117 118 119 366 0
-14 43 -54 -119 -121 -440 0
-9 14 -119 345 0
-14 -28 -366 0
43 -54 -118 -121 -440 0
14 -119 -121 -440 0
-11 14 -117 336 0
-14 -44 -336 0
44 117 -118 119 368 0
-14 -17 19 -111 118 -121 -440 0
16 -54 117 -118 119 -121 -440 0
-11 44 -117 336 0
-11 115 117 -118 119 -121 -440 0
-14 -16 -54 -119 -121 -440 0
-16 -54 -117 -121 -440 0
11 44 368 0
-11 44 118 336 0
-14 -44 -368 0
19 60 -111 -119 -121 -440 0
-11 118 -368 0
-10 14 -117 341 0
-14 -25 -341 0
25 117 118 -119 369 0
17 19 -111 -118 -121 -440 0
-14 -54 59 117 118 -119 -121 -440 0
-10 25 -117 341 0
19 -111 -117 -121 -440 0
-10 115 117 118 -119 -121 -440 0
-14 -54 -59 119 -121 -440 0
14 117 118 -119 369 0
10 25 369 0
21 68 -346 506 0
-14 -25 -369 0
-14 -54 -59 -118 -121 -440 0
-10 -118 -369 0
-14 20 -54 -117 118 119 -121 -440 0
-14 -58 -345 0
-9 58 -117 345 0
9 58 370 0
-9 115 117 118 119 -121 -440 0
17 60 -111 -118 -121 -440 0
-9 14 -117 345 0
-14 -43 -54 117 118 119 -121 -440 0
-9 14 -118 345 0
-14 -58 -370 0
-9 58 -119 345 0
13 28 366 0
29 -346 0
14 -346 0
-14 -29 346 0
14 -522 0
-14 -24 -349 0
6 24 -527 0
6 7 14 -68 -506 0
-14 -21 -349 0
-14 -24 522 -528 0
-14 -21 -68 494 506 0
6 14 -527 0
111 -121 -346 -440 0
-14 -15 37 336 341 345 346 -349 364 0
35 -346 -576 0
-14 -35 -37 374 0
24 -71 349 494 528 0
-23 117 -118 -119 336 341 345 346 -349 364 0
12 -14 -23 -35 336 341 345 364 0
14 120 -588 0
-14 -23 -35 374 0
7 8 37 111 -120 -589 0
-23 70 365 516 0
-14 23 -37 -516 0
-23 365 -517 0
37 117 -118 -119 336 341 345 346 -349 364 0
-8 37 -588 0
37 120 -588 0
-7 37 -588 0
37 -111 -588 0
35 346 -349 -374 0
37 70 365 516 0
-12 14 -61 62 63 64 112 118 482 0
-14 -15 -367 0
-12 15 -117 -364 0
6 21 68 120 506 0
18 -54 117 -118 -119 -121 -440 0
-12 15 -61 62 63 64 112 118 482 0
-12 14 -61 62 -63 -64 -112 -117 -118 482 0
-12 115 117 -118 -119 -121 -440 0
-14 19 -60 -111 119 -121 -440 0
-341 -364 0
-12 14 -62 -117 -482 0
-61 -62 63 -64 112 117 -118 -119 365 482 0
-14 -15 -61 -62 -63 -64 -112 -118 365 482 0
-14 -18 -54 119 -121 -440 0
12 -61 -62 63 -64 112 -118 365 482 0
37 365 -517 0
-12 118 -367 0
-14 -15 -61 -62 -63 64 -112 118 365 482 0
-331 -365 0
364 -365 0
331 -364 365 0
13 14 366 0
13 -331 0
-14 -20 -54 117 -121 -440 0
-336 -364 0
-12 14 118 -364 0
12 62 365 -482 0
11 14 368 0
11 -336 0
-11 -119 -368 0
10 14 369 0
10 -341 0
-14 -54 -59 -117 -121 -440 0
9 14 370 0
9 -345 0
-14 43 -54 -117 -121 -440 0
6 21 -68 349 -506 0
68 -346 -349 506 0
12 -61 -62 63 64 112 118 365 482 0
-7 14 -588 0
-14 -35 365 -577 0
-61 -62 -63 -64 -112 117 -118 -119 365 482 0
23 37 -374 0
62 117 -118 -119 365 -482 0
-14 -18 -54 -117 -121 -440 0
-14 23 -37 -70 517 0
-14 -18 -54 118 -121 -440 0
-97 -370 409 0
49 -50 97 365 366 367 368 369 370 -374 408 0
-69 374 513 0
-97 -369 409 0
-49 96 365 366 367 368 369 370 -374 -384 398 0
-370 -581 0
-97 -368 409 0
-49 365 366 367 368 369 370 -374 -384 -399 0
-369 -581 0
-97 -367 409 0
-50 97 365 366 367 368 369 370 -374 -384 408 0
-368 -581 0
-97 -366 409 0
-50 365 366 367 368 369 370 -374 -384 -409 0
-367 -581 0
-97 -365 409 0
49 -50 365 366 367 368 369 370 -374 -409 0
-366 -581 0
48 95 365 366 367 368 369 370 -374 382 384 -392 0
-48 95 365 366 367 368 369 370 -374 -384 -392 0
48 -95 -384 -392 0
-36 -382 0
2 14 93 94 120 326 0
-14 -46 93 -115 -326 0
6 22 384 0
-14 -22 -384 0
-366 -408 0
-6 -384 0
6 14 384 0
-366 -512 0
-48 95 365 366 367 368 369 370 -374 -382 -392 0
382 -512 0
49 -384 -398 0
-48 -49 -50 382 384 -408 0
48 -50 97 365 366 367 368 369 370 -374 408 0
-48 49 365 366 367 368 369 370 -374 382 384 -399 0
50 -382 -408 0
48 -50 365 366 367 368 369 370 -374 -409 0
48 49 -398 0
-48 -49 50 365 366 367 368 369 370 -374 382 384 -409 0
48 -95 -382 -392 0
49 -96 -382 399 0
-48 -49 50 97 365 366 367 368 369 370 -374 382 384 408 0
48 -95 365 366 367 368 369 370 -374 382 384 392 0
48 49 -96 399 0
14 95 -384 392 0
48 95 -384 392 0
-48 -95 365 366 367 368 369 370 -374 -382 392 0
50 -384 -408 0
-69 -366 513 0
-48 49 96 365 366 367 368 369 370 -374 382 384 398 0
50 -97 -384 409 0
-96 -366 399 0
12 37 336 341 345 346 -349 364 0
-96 -370 399 0
14 -408 0
-48 -49 382 384 -398 0
49 50 -408 0
14 -97 409 0
49 50 -97 409 0
14 -95 -384 -392 0
-50 97 365 366 367 368 369 370 -374 -382 408 0
-48 -49 -50 -97 382 384 409 0
-69 -365 513 0
-49 365 366 367 368 369 370 -374 -382 -399 0
-96 -398 0
14 -96 399 0
96 -399 0
95 -365 392 0
48 50 -97 409 0
-399 -469 0
-105 -106 -107 -109 -119 -326 345 365 -392 398 399 408 409 414 415 418 419 421 422 427 428 441 442 448 449 451 452 469 0
2 7 8 14 -93 94 -120 326 0
365 366 367 368 369 370 -374 382 -384 -582 0
-105 106 -107 109 -119 -326 345 365 -392 398 399 408 409 414 415 418 419 421 422 427 428 441 442 448 449 451 452 469 0
-49 96 365 366 367 368 369 370 -374 -382 398 0
-50 365 366 367 368 369 370 -374 -382 -409 0
105 -106 -107 -109 -119 -326 -345 -392 398 399 408 409 414 415 418 419 421 422 427 428 441 442 448 449 451 452 469 0
48 -49 96 365 366 367 368 369 370 -374 398 0
-96 -367 399 0
-14 -50 -121 -440 0
-96 -368 399 0
48 50 -408 0
-14 -48 -95 382 384 -392 0
-366 -398 0
48 -49 365 366 367 368 369 370 -374 -399 0
-96 -365 399 0
-95 -366 -392 0
365 366 367 368 369 370 -374 -382 384 -513 0
-48 -49 -96 382 384 399 0
95 -366 392 0
14 -398 0
-69 -367 513 0
-97 -408 0
-14 -48 95 382 384 392 0
-96 -369 399 0
97 -409 0
-95 -365 -392 0
69 365 366 367 368 369 370 -374 -382 384 512 0
-409 -469 0
105 106 -107 109 -119 -326 -345 -392 398 399 408 409 414 415 418 419 421 422 427 428 441 442 448 449 451 452 469 0
-367 -512 0
14 -98 -113 415 0
12 -14 -51 -113 -121 -440 0
-367 -408 0
12 113 -415 0
51 -113 -414 0
-367 -398 0
-12 -98 415 0
12 -14 -51 -415 0
-95 -367 -392 0
-98 -414 0
51 -98 -113 415 0
14 -113 -414 0
98 -415 0
-12 -414 0
12 98 113 414 0
-415 -469 0
105 -106 -107 -109 -119 -326 -365 -392 399 409 414 415 418 419 421 422 427 428 441 442 448 449 451 452 469 0
-69 -368 513 0
95 -367 392 0
105 106 -107 109 -119 -326 -365 -392 399 409 414 415 418 419 421 422 427 428 441 442 448 449 451 452 469 0
-368 -512 0
-99 -418 0
12 -418 0
-12 99 418 0
99 -419 0
-12 -419 0
12 -99 419 0
-419 -469 0
-105 -106 107 -109 119 -326 345 365 -392 398 399 408 409 414 415 418 419 421 422 427 428 441 442 448 449 451 452 469 0
-368 -398 0
-100 -421 0
1 -421 0
-1 100 421 0
100 -422 0
-1 -422 0
1 -100 422 0
-422 -469 0
-105 106 107 109 119 -326 345 365 -392 398 399 408 409 414 415 418 419 421 422 427 428 441 442 448 449 451 452 469 0
95 -368 392 0
-95 -368 -392 0
105 -106 107 -109 119 -326 -345 -392 398 399 408 409 414 415 418 419 421 422 427 428 441 442 448 449 451 452 469 0
-69 -369 513 0
105 106 107 109 119 -326 -345 -392 398 399 408 409 414 415 418 419 421 422 427 428 441 442 448 449 451 452 469 0
-369 -408 0
-369 -512 0
105 -106 107 -109 119 -326 -365 -392 399 409 414 415 418 419 421 422 427 428 441 442 448 449 451 452 469 0
-95 -369 -392 0
-101 -427 0
6 -427 0
-6 101 427 0
101 -428 0
-6 -428 0
6 -101 428 0
-428 -469 0
105 106 107 109 119 -326 -365 -392 399 409 414 415 418 419 421 422 427 428 441 442 448 449 451 452 469 0
-69 -370 513 0
55 -430 0
14 -430 0
-14 -55 430 0
-13 -431 0
5 -431 0
-5 13 431 0
2 3 4 -9 430 431 440 0
-4 12 -440 0
1 3 -10 -12 430 431 440 0
3 4 -9 -10 430 431 440 0
-3 11 -440 0
1 2 3 -12 430 431 440 0
2 4 -9 -11 430 431 440 0
-2 10 -440 0
2 3 -9 -12 430 431 440 0
4 -9 -10 -11 430 431 440 0
-1 9 -440 0
1 2 -11 -12 430 431 440 0
1 4 -10 -11 430 431 440 0
3 -9 -10 -12 430 431 440 0
1 -10 -11 -12 430 431 440 0
2 -9 -11 -12 430 431 440 0
1 2 4 -11 430 431 440 0
-9 -10 -11 -12 430 431 440 0
1 3 4 -10 430 431 440 0
-370 -408 0
-370 -512 0
1 2 3 4 430 431 440 0
-95 -370 -392 0
-430 -440 0
-370 -398 0
-431 -440 0
-102 -441 0
-440 -441 0
102 440 441 0
102 -442 0
440 -442 0
-102 -440 442 0
-442 -469 0
-398 -469 0
-96 374 399 0
95 -370 392 0
392 -469 0
14 -103 -114 449 0
13 -14 -56 -114 -121 -440 0
374 -581 0
13 114 -449 0
56 -114 -448 0
374 -512 0
-13 -103 449 0
13 -14 -56 -449 0
374 -408 0
-103 -448 0
56 -103 -114 449 0
14 -114 -448 0
103 -449 0
-13 -448 0
13 103 114 448 0
-449 -469 0
326 -469 0
-95 374 -392 0
-104 -451 0
13 -451 0
-13 104 451 0
104 -452 0
-13 -452 0
13 -104 452 0
-452 -469 0
-408 -469 0
6 -8 21 68 506 0
95 374 392 0
-414 -469 0
-12 119 -367 0
-12 -117 -367 0
-12 14 -61 62 63 -64 112 -118 119 482 0
-421 -469 0
-12 15 -61 62 -63 -64 -112 -117 -118 482 0
374 -398 0
-368 -408 0
49 -96 -384 399 0
12 15 367 0
95 -369 392 0
-418 -469 0
-427 -469 0
-12 15 -61 62 63 -64 112 -117 -118 482 0
-451 -469 0
-448 -469 0
15 117 -118 -119 367 0
-12 15 -62 -117 -482 0
-12 15 -62 118 -482 0
-441 -469 0
-12 15 -61 62 -63 -64 -112 -118 119 482 0
-12 15 -62 119 -482 0
6 -7 8 -68 111 -120 346 -349 506 0
-12 15 119 -364 0
-12 15 -61 62 63 -64 112 -118 119 482 0
-14 -23 -35 117 -118 -119 336 341 345 364 0
-12 15 -61 62 -63 64 -112 118 482 0
-14 -35 37 117 -118 -119 336 341 345 364 0
-14 -15 -23 -35 336 341 345 364 0
-12 15 118 -364 0
-14 -15 -35 37 336 341 345 364 0
12 -14 -35 37 336 341 345 364 0
-97 374 409 0
6 24 -71 528 0
-369 -398 0
-12 14 -61 62 -63 -64 -112 -118 119 482 0
-12 14 -62 119 -482 0
-14 -15 -61 -62 63 -64 112 -118 365 482 0
-61 62 -63 64 -112 118 -365 482 0
12 -61 -62 -63 -64 -112 -118 365 482 0
-14 -15 -61 -62 63 64 112 118 365 482 0
7 24 494 -527 0
-12 14 119 -364 0
14 117 -118 -119 367 0
-61 62 63 -64 112 -118 -365 482 0
12 -61 -62 -63 64 -112 118 365 482 0
-12 14 -117 -364 0
7 24 -71 494 528 0
-61 62 63 64 112 118 -365 482 0
-14 -15 62 365 -482 0
24 -346 -527 0
-61 62 -63 -64 -112 -118 -365 482 0
63 -112 -482 0
24 -111 494 -527 0
61 -482 0
-63 112 -482 0
24 -71 -111 494 528 0
12 14 367 0
-8 24 494 -527 0
24 -71 120 494 528 0
-62 -365 -482 0
64 -118 -482 0
-10 25 119 341 0
-10 25 -118 341 0
-64 118 -482 0
17 60 -111 -119 -121 -440 0
-10 119 -369 0
-11 44 -119 336 0
-13 -119 -366 0
-13 28 117 331 0
-8 24 -71 494 528 0
-13 28 -119 331 0
-23 349 374 0
-13 28 -118 331 0
24 120 494 -527 0
-65 66 -113 117 489 0
65 -113 -489 0
65 66 113 117 489 0
-65 113 -489 0
65 -66 113 -117 489 0
-2 -8 46 93 -94 326 0
-65 -66 -113 -117 489 0
66 -117 -489 0
-66 117 -489 0
67 114 492 0
67 -114 -492 0
-67 114 -492 0
-67 -114 492 0
6 -522 0
14 -494 0
6 21 68 349 506 0
6 14 68 -111 506 0
14 349 0
-14 -21 68 494 -506 0
6 14 68 120 506 0
68 -494 506 0
-6 -68 346 349 494 506 0
6 7 21 -68 -506 0
-6 68 -349 506 0
6 -494 0
-111 115 -588 0
-8 115 -588 0
14 -111 -588 0
35 349 -364 0
346 -349 365 -577 0
-8 -71 -522 528 0
7 14 -527 0
-6 -7 8 111 -120 346 -349 -528 0
-37 349 374 0
7 68 -349 506 0
-6 -68 -349 -506 0
24 349 494 -527 0
-68 -494 -506 0
-8 68 -349 506 0
-8 -68 -349 -506 0
-23 -346 374 0
-8 -522 -527 0
7 -68 -349 -506 0
-8 14 -71 528 0
506 -556 0
-75 -76 331 364 -482 -489 -492 -506 512 513 516 517 -522 527 528 531 532 536 537 539 540 556 0
-75 76 331 346 364 -482 -489 -492 -506 512 513 516 517 522 527 528 531 532 536 537 539 540 556 0
-68 -111 -349 -506 0
-6 -75 76 331 -349 364 -482 -489 -492 -506 512 513 516 517 522 527 528 531 532 536 537 539 540 556 0
-365 -408 0
49 -382 -398 0
-69 382 513 0
-69 -384 513 0
48 95 -382 392 0
-69 -512 0
384 -581 0
-365 -512 0
69 -513 0
-384 -512 0
-48 -95 365 366 367 368 369 370 -374 -384 392 0
-513 -556 0
6 -75 -76 331 -346 364 -482 -489 -492 -506 512 513 516 517 527 528 531 532 536 537 539 540 556 0
14 -111 -527 0
-14 23 -37 -364 0
12 14 336 341 345 364 0
14 -71 -111 528 0
-70 -516 0
-365 -516 0
14 117 -118 -119 336 341 345 364 0
70 -517 0
14 365 -517 0
-70 -365 517 0
-517 -556 0
-75 -76 331 -346 349 364 -482 -489 -492 -506 512 513 516 517 527 528 531 532 536 537 539 540 556 0
-71 -111 -522 528 0
-111 -522 -527 0
75 -76 -331 -482 -489 -492 -506 512 513 516 517 -522 527 528 531 532 536 537 539 540 556 0
6 14 -71 528 0
24 71 -494 527 0
-6 68 346 349 494 -506 0
6 -8 14 68 506 0
-71 349 -522 528 0
6 14 -68 120 -506 0
21 -522 0
7 -71 -522 528 0
-6 -14 -21 -24 346 522 0
6 -8 14 -68 -506 0
-68 -346 -349 -506 0
7 8 14 111 -120 -589 0
6 14 -68 -111 -506 0
7 -522 -527 0
349 -522 -527 0
35 349 -576 0
-71 -527 0
24 -494 -528 0
71 -528 0
-14 -24 71 522 527 0
-528 -556 0
75 76 -331 346 -482 -489 -492 -506 512 513 516 517 522 527 528 531 532 536 537 539 540 556 0
-72 -341 532 0
72 341 365 531 0
-68 120 -349 -506 0
-72 -531 0
-365 -531 0
341 365 -532 0
72 -532 0
-341 -531 0
-72 -365 532 0
-532 -556 0
-6 75 76 -331 -349 -482 -489 -492 -506 512 513 516 517 522 527 528 531 532 536 537 539 540 556 0
-37 -346 374 0
68 120 -349 506 0
6 75 -76 -331 -346 -482 -489 -492 -506 512 513 516 517 527 528 531 532 536 537 539 540 556 0
115 120 -588 0
75 -76 -331 -346 349 -482 -489 -492 -506 512 513 516 517 527 528 531 532 536 537 539 540 556 0
14 120 -527 0
-73 -536 0
110 -536 0
73 -110 536 0
73 -537 0
-110 -537 0
-73 110 537 0
-537 -556 0
75 -76 -364 -482 -489 -492 -506 512 513 516 517 -522 527 528 531 532 536 537 539 540 556 0
120 -522 -527 0
-74 -539 0
116 -539 0
74 -116 539 0
74 -540 0
-116 -540 0
-74 116 540 0
-540 -556 0
75 76 346 -364 -482 -489 -492 -506 512 513 516 517 522 527 528 531 532 536 537 539 540 556 0
6 7 14 68 506 0
-71 120 -522 528 0
-6 75 76 -349 -364 -482 -489 -492 -506 512 513 516 517 522 527 528 531 532 536 537 539 540 556 0
-512 -556 0
492 -556 0
6 75 -76 -346 -364 -482 -489 -492 -506 512 513 516 517 527 528 531 532 536 537 539 540 556 0
14 -71 120 528 0
482 -556 0
-516 -556 0
7 14 -71 528 0
489 -556 0
-539 -556 0
-527 -556 0
14 -374 0
-531 -556 0
75 -76 -346 349 -364 -482 -489 -492 -506 512 513 516 517 527 528 531 532 536 537 539 540 556 0
21 24 349 0
-346 -494 0
21 -494 0
-536 -556 0
-346 -522 0
24 -522 0
68 -111 -349 506 0
5 -9 -77 78 -79 -80 -111 -115 571 0
5 -9 -77 78 79 -80 111 -115 571 0
-5 9 77 -78 -79 80 -111 115 571 0
5 9 -77 78 79 80 111 -115 571 0
-5 9 -77 -78 -79 80 -111 -115 571 0
-5 9 77 -78 79 80 111 115 571 0
-5 9 -77 -78 79 80 111 -115 571 0
6 7 21 68 506 0
5 9 77 78 -79 80 -111 115 571 0
-5 -9 77 -78 79 -80 111 115 571 0
-5 -9 -77 -78 79 -80 111 -115 571 0
5 -9 77 78 -79 -80 -111 115 571 0
-6 -14 -21 346 494 0
5 9 77 78 79 80 111 115 571 0
5 9 -77 78 -79 80 -111 -115 571 0
-5 -9 77 -78 -79 -80 -111 115 571 0
-5 -9 -77 -78 -79 -80 -111 -115 571 0
5 -9 77 78 79 -80 111 115 571 0
-4 -81 574 0
4 81 574 0
-14 -15 -23 336 341 345 346 -349 364 0
-82 -576 0
-365 -576 0
12 -23 336 341 345 346 -349 364 0
82 -577 0
111 -121 349 -440 0
-11 -90 -91 -92 -108 -121 122 336 365 -469 -556 -571 -574 576 577 581 582 588 589 597 598 600 601 604 605 607 608 616 0
-11 90 91 -92 108 -121 122 -365 -469 -556 -571 -574 577 582 588 589 597 598 600 601 604 605 607 608 616 0
50 -97 -382 409 0
-83 -581 0
-365 -581 0
7 8 14 93 -120 -326 0
83 -582 0
-382 -581 0
-365 -398 0
-14 -16 -54 118 -121 -440 0
6 -7 8 68 111 -120 346 -349 -506 0
-6 -7 8 71 111 -120 346 -349 527 0
24 -71 -346 528 0
-14 -37 115 -588 0
-14 -37 -115 -589 0
-84 -588 0
-8 14 -588 0
84 -589 0
-8 14 -527 0
-7 115 -588 0
11 -90 91 92 -108 -121 122 -365 -469 -556 -571 -574 577 582 588 589 597 598 600 601 604 605 607 608 615 616 0
-11 -90 91 -92 -108 -121 122 -365 -469 -556 -571 -574 577 582 588 589 597 598 600 601 604 605 607 608 616 0
11 90 -91 92 108 -121 122 365 -469 -556 -571 -574 576 577 581 582 588 589 597 598 600 601 604 605 607 608 615 616 0
-11 90 -91 -92 108 -121 122 336 365 -469 -556 -571 -574 576 577 581 582 588 589 597 598 600 601 604 605 607 608 616 0
10 -14 -38 -109 -121 -440 0
10 109 -598 0
38 -109 -597 0
10 -14 -38 -598 0
-85 -597 0
14 -109 -597 0
85 -598 0
-10 -597 0
11 90 91 92 108 -121 122 -365 -469 -556 -571 -574 577 582 588 589 597 598 600 601 604 605 607 608 615 616 0
-86 -600 0
10 -600 0
86 -601 0
-10 -601 0
14 117 -118 119 368 0
11 -90 -91 92 -108 -121 122 365 -469 -556 -571 -574 576 577 581 582 588 589 597 598 600 601 604 605 607 608 615 616 0
-87 -604 0
3 -604 0
87 -605 0
-3 -605 0
-88 -607 0
120 -607 0
88 -608 0
-120 -608 0
-90 91 -92 -108 -121 122 -336 -469 -556 -571 -574 576 577 581 582 588 589 597 598 600 601 604 605 607 608 615 616 0
11 -14 -42 -112 -121 -440 0
11 112 -616 0
42 -112 -615 0
11 -14 -42 -616 0
-89 -615 0
14 -112 -615 0
89 -616 0
-11 -615 0
27 33 39 45 52 57 -108 -121 -440 0
14 -108 -121 -440 0
-14 -27 -43 108 -121 -440 0
13 -14 -56 103 448 0
12 -14 -51 98 414 0
-14 27 -31 110 -114 -121 -440 0
-14 27 -34 110 -113 -121 -440 0
27 53 108 -110 -121 -440 0
-14 27 -40 110 -112 -121 -440 0
27 47 -109 -110 -121 -440 0
14 -110 -121 -440 0
-14 27 -47 -109 110 -121 -440 0
27 40 -110 -112 -121 -440 0
27 31 -110 -114 -121 -440 0
-14 27 -53 108 110 -121 -440 0
27 34 -110 -113 -121 -440 0
-14 26 -27 -110 -121 -440 0
-14 -27 59 -109 -121 -440 0
10 -115 117 118 -119 -121 -440 0
9 -115 117 118 119 -121 -440 0
-14 -18 -27 113 -121 -440 0
-14 16 -27 -112 -121 -440 0
11 -115 117 -118 119 -121 -440 0
-27 43 -108 -121 -440 0
-14 -20 -27 114 -121 -440 0
12 -115 117 -118 -119 -121 -440 0
-14 18 -27 -113 -121 -440 0
-14 -26 -27 110 -121 -440 0
13 -115 -117 118 119 -121 -440 0
-14 26 -54 -120 -121 -440 0
-14 -26 -54 120 -121 -440 0
-14 -27 -59 109 -121 -440 0
54 111 -121 -440 0
14 111 -121 -440 0
-37 111 -121 -440 0
35 -346 -364 0
-17 -111 -117 118 119 -121 -440 0
-19 -111 117 -119 -121 -440 0
-14 -17 -111 118 119 -121 -440 0
-14 -19 -111 117 -121 -440 0
-19 -111 117 -118 -121 -440 0
17 -111 117 -118 -121 -440 0
6 21 -68 120 -506 0
41 -111 -120 -121 -440 0
-14 -41 -111 120 -121 -440 0
14 -120 -121 -440 0
-14 -20 -54 -118 -121 -440 0
60 -111 117 -119 -121 -440 0
-11 14 -119 336 0
21 -68 -346 -506 0
-9 -117 -370 0
-9 -118 -370 0
-9 58 -118 345 0
-345 -364 0
6 21 68 -111 506 0
-10 14 119 341 0
-117 118 119 -331 0
-13 -118 -366 0
-12 14 -61 62 63 -64 112 -117 -118 482 0
-10 -117 -369 0
-12 14 -62 118 -482 0
-60 -111 117 -118 119 -121 -440 0
-11 -117 -368 0
117 118 119 -345 0
117 -118 119 -336 0
-17 -111 117 118 -119 -121 -440 0
6 -8 21 -68 -506 0
14 117 118 119 370 0
117 118 -119 -341 0
-14 -60 -111 118 119 -121 -440 0
-13 14 -119 331 0
14 -117 -121 -440 0
-13 117 -366 0
-14 20 -27 -114 -121 -440 0
-13 14 -118 331 0
-12 14 -61 62 -63 64 -112 118 482 0
-11 14 118 336 0
-10 14 -118 341 0
-14 -16 -27 112 -121 -440 0
14 70 365 516 0
14 15 16 17 18 19 20 21 22 23 24 25 26 27 28 29 30 31 32 33 34 35 36 37 38 39 40 41 42 43 44 45 46 47 48 49 50 51 52 53 54 55 56 57 58 59 60 121 0
